511 521 523 
541 551 553 
571 581 583 
601 611 613 
631 641 643 
661 671 673 
691 701 703 
721 731 733 
755 765 767 
788 798 800 
818 828 830 
848 858 860 
878 888 890 
908 918 920 
938 948 950 
968 978 980 
998 1008 1010 
1028 1038 1040 
1058 1068 1070 
1087 1097 1099 
1115 1125 1127 
1143 1153 1155 
1173 1183 1185 
1203 1213 1215 
1233 1243 1245 
1263 1273 1275 
1293 1303 1305 
1323 1333 1335 
1353 1363 1365 
1383 1393 1395 
1413 1423 1425 
1443 1453 1455 
1473 1483 1485 
